100
3 4
34 0
13 1
16 4
27 1
25 4
11 3
15 4
18 2
3 1
12 3
19 3
16 2
10 3
19 4
9 0
12 4
14 4
24 4
1 3
38 0
14 0
28 3
40 4
21 0
42 4
21 2
23 3
23 0
7 2
39 0
28 0
23 4
31 0
21 1
5 4
20 4
7 3
7 1
10 4
11 2
32 1
41 1
1 4
11 0
38 1
36 4
11 4
0 4
20 1
34 1
16 0
18 0
27 4
22 4
41 3
39 4
27 0
22 2
14 2
43 3
18 3
4 4
27 3
2 1
5 0
30 4
20 0
43 0
12 0
9 4
13 4
15 0
13 3
14 1
36 0
38 4
6 0
30 1
4 0
15 1
1 1
0 0
33 0
9 2
18 1
9 1
6 4
32 2
4 3
34 4
1 0
31 4
41 0
20 3
33 3
10 1
25 0
30 3
30 0

